c read Graph
c width = 127
c time = 103 ms
c width = 13
c time = 176 ms
c width = 12
c time = 243 ms
c width = 11
c time = 831 ms
c width = 10
c time = 4836 ms
c width = 10
c time = 4939 ms
s td 129 11 140
b 1 1 2 15
b 2 2 3 15 16
b 3 12 13 27 28
b 4 3 15 16 29
b 5 12 27 28 42
b 6 99 113 114 128
b 7 112 125 126 139
b 8 99 114 128 129
b 9 112 125 138 139
b 10 3 4 16 17 29
b 11 4 5 16 17 18 29
b 12 5 6 16 17 18 19 29
b 13 6 7 16 17 18 19 20 29
b 14 7 8 16 17 18 19 20 21 29
b 15 8 9 16 17 18 19 20 21 22 29
b 16 9 16 17 18 19 20 21 22 29 30
b 17 9 17 18 19 20 21 22 29 30 31
b 18 9 18 19 20 21 22 29 30 31 32
b 19 9 19 20 21 22 29 30 31 32 33
b 20 9 20 21 22 29 30 31 32 33 34
b 21 9 21 22 29 30 31 32 33 34 35
b 22 9 22 23 29 30 31 32 33 34 35 36
b 23 9 23 29 30 31 32 33 34 35 36 43
b 24 9 23 30 31 32 33 34 35 36 43 44
b 25 9 23 31 32 33 34 35 36 43 44 45
b 26 9 23 32 33 34 35 36 43 44 45 46
b 27 9 23 33 34 35 36 43 44 45 46 47
b 28 9 23 34 35 36 43 44 45 46 47 48
b 29 9 23 35 36 43 44 45 46 47 48 49
b 30 9 23 36 43 44 45 46 47 48 49 57
b 31 9 23 36 44 45 46 47 48 49 57 58
b 32 9 23 36 45 46 47 48 49 57 58 59
b 33 9 23 36 46 47 48 49 57 58 59 60
b 34 9 23 36 47 48 49 57 58 59 60 61
b 35 9 23 36 48 49 57 58 59 60 61 62
b 36 9 23 36 49 57 58 59 60 61 62 71
b 37 9 23 36 49 58 59 60 61 62 71 72
b 38 9 23 36 49 59 60 61 62 71 72 73
b 39 9 23 36 49 60 61 62 71 72 73 74
b 40 9 23 36 49 61 62 71 72 73 74 75
b 41 9 23 36 49 62 71 72 73 74 75 85
b 42 9 23 36 49 62 72 73 74 75 85 86
b 43 9 23 36 49 62 73 74 75 85 86 87
b 44 9 23 36 49 62 74 75 85 86 87 88
b 45 9 23 36 49 62 75 85 86 87 88 99
b 46 9 23 36 49 62 75 86 87 88 99 100
b 47 9 23 36 49 62 75 87 88 99 100 101
b 48 9 23 36 49 62 75 88 99 100 101 114
b 49 9 23 36 49 62 75 88 99 101 114 129
b 50 9 23 36 49 62 75 88 101 114 115 129
b 51 9 23 36 49 62 75 88 101 102 115 129
b 52 9 23 36 49 62 75 88 89 102 115 129
b 53 9 23 36 49 62 75 76 89 102 115 129
b 54 9 23 36 49 62 63 76 89 102 115 129
b 55 9 23 36 49 50 63 76 89 102 115 129
b 56 9 23 36 37 50 63 76 89 102 115 129
b 57 9 23 24 37 50 63 76 89 102 115 129
b 58 9 11 24 37 50 63 76 89 102 115 129
b 59 11 24 37 50 63 76 89 102 115 116 129
b 60 11 24 37 50 63 76 89 102 103 116 129
b 61 11 24 37 50 63 76 89 90 103 116 129
b 62 11 24 37 50 63 76 77 90 103 116 129
b 63 11 24 37 50 63 64 77 90 103 116 129
b 64 11 24 37 50 51 64 77 90 103 116 129
b 65 11 24 37 38 51 64 77 90 103 116 129
b 66 11 24 38 51 64 77 90 103 116 129 130
b 67 11 24 38 51 64 77 90 103 116 117 130
b 68 11 24 38 51 64 77 90 103 104 117 130
b 69 11 24 38 51 64 77 90 91 104 117 130
b 70 11 24 38 51 64 77 78 91 104 117 130
b 71 11 24 38 51 64 65 78 91 104 117 130
b 72 11 24 38 51 52 65 78 91 104 117 130
b 73 11 24 38 39 52 65 78 91 104 117 130
b 74 11 24 26 39 52 65 78 91 104 117 130
b 75 11 26 39 52 65 78 91 104 117 130 131
b 76 11 26 39 52 65 78 91 104 117 118 131
b 77 11 26 39 52 65 78 91 104 105 118 131
b 78 11 26 39 52 65 78 91 92 105 118 131
b 79 11 26 39 52 65 78 79 92 105 118 131
b 80 11 26 39 52 65 66 79 92 105 118 131
b 81 11 26 39 52 53 66 79 92 105 118 131
b 82 11 26 39 53 66 79 92 105 118 131 132
b 83 11 26 39 53 66 79 92 105 118 119 132
b 84 11 26 39 53 66 79 92 105 106 119 132
b 85 11 26 39 53 66 79 92 93 106 119 132
b 86 11 26 39 53 66 79 80 93 106 119 132
b 87 11 26 39 53 66 67 80 93 106 119 132
b 88 11 26 39 53 54 67 80 93 106 119 132
b 89 11 26 39 41 54 67 80 93 106 119 132
b 90 11 26 41 54 56 67 80 93 106 119 132
b 91 41 54 56 67 69 80 93 106 119 132
b 92 54 56 67 69 80 84 93 106 119 132
b 93 56 67 69 70 80 84 93 106 119 132
b 94 54 67 69 80 84 93 106 119 121 132 136
b 95 54 67 69 80 82 84 93 106 121 136
b 96 67 69 80 82 84 93 106 108 121 136
b 97 67 69 80 82 84 93 95 108 121 136
b 98 67 80 81 82 95
b 99 80 93 94 95 108
b 100 69 82 84 95 108 121 123 136
b 101 69 82 84 95 97 108 123 136
b 102 69 82 83 84 97
b 103 82 84 95 97 108 110 123 136
b 104 95 108 109 110 123
b 105 84 97 110 123 136 138
b 106 123 136 137 138
b 107 84 97 110 112 123 138
b 108 84 97 98 112
b 109 97 110 112 123 124 138
b 110 97 110 111 112 124 138
b 111 111 112 124 125 138
b 112 82 95 96 97 110
b 113 108 121 122 123 136
b 114 93 106 107 108 121
b 115 54 67 68 69 82
b 116 106 119 121 132 134 136
b 117 121 134 135 136
b 118 119 132 133 134
b 119 106 119 120 121 134
b 120 11 24 25 26 39
b 121 11 26 41 42 56
b 122 11 12 26 41 42
b 123 12 26 27 41 42
b 124 26 39 40 41 54
b 125 41 54 55 56 69
b 126 9 10 11 24
b 127 126 139 140
b 128 113 127 128
b 129 13 14 28
1 2
2 4
3 129
3 5
4 10
5 123
6 128
6 8
7 127
7 9
8 49
9 111
10 11
11 12
12 13
13 14
14 15
15 16
16 17
17 18
18 19
19 20
20 21
21 22
22 23
23 24
24 25
25 26
26 27
27 28
28 29
29 30
30 31
31 32
32 33
33 34
34 35
35 36
36 37
37 38
38 39
39 40
40 41
41 42
42 43
43 44
44 45
45 46
46 47
47 48
48 49
49 50
50 51
51 52
52 53
53 54
54 55
55 56
56 57
57 58
58 126
58 59
59 60
60 61
61 62
62 63
63 64
64 65
65 66
66 67
67 68
68 69
69 70
70 71
71 72
72 73
73 74
74 120
74 75
75 76
76 77
77 78
78 79
79 80
80 81
81 82
82 83
83 84
84 85
85 86
86 87
87 88
88 89
89 124
89 90
90 121
90 91
91 125
91 92
92 94
92 93
94 116
94 95
95 96
95 115
96 97
96 114
97 98
97 99
97 100
100 113
100 101
101 102
101 103
103 112
103 104
103 105
105 106
105 107
107 108
107 109
109 110
110 111
116 117
116 118
116 119
121 122
122 123
